8 0 10 0 12 3 12 1 17 1 15 3 13 1 12 1 10 3 10 1 12 1 8 4
8 0 10 0 12 3 12 1 17 1 15 3 12 1 15 1 10 4 
20 2 19 2 17 1 15 2 13 2 12 1 10 2 15 2 12 1 13 0 12 0 
17 0 19 0 20 2 19 2 17 1 15 2 20 2 24 1 22 5
20 0 20 0 19 0 19 0 15 0 17 1 17 0 19 1 19 0 19 1 20 3 
20 0 19 0 19 0 15 0 17 1 20 0 22 1 20 0 19 0 20 3 
20 0 19 0 19 0 15 0 17 1 17 1 15 4 20 0 19 0 17 0 19 0 20 0 
20 0 20 1 19 0 19 1 17 0 19 0 19 1  
20 0 20 0 19 0 19 0 15 0 17 1 17 0 19 1 19 0 19 1 20 3 
20 0 19 0 19 0 15 0 17 1 20 0 22 1 20 0 19 0 20 3 
20 0 19 0 19 0 15 0 17 1 17 1 15 4 20 0 19 0 17 0 19 0 20 0 
20 0 20 1 19 0 19 1 17 0 19 0 19 1  
0 0 1 0 3 3 3 1 8 1 8 3 5 1 5 1 1 3 1 1 3 1 5 3 
0 0 1 0 3 3 3 1 8 1 8 3 3 1 8 1 7 5 
20 0 19 0 19 0 15 0 17 1 17 0 19 1 19 0 19 1 20 3 
20 0 19 0 19 0 15 0 17 1 20 0 22 1 20 0 19 0 20 3 
20 0 19 0 19 0 15 0 17 1 17 1 15 4 20 0 19 0 17 0 19 0 20 0 
20 0 20 1 19 0 19 1 17 0 19 0 19 1  